BAYES
2 2 2 2 2 2 2 2 2 2 2 2 2 2 2 2 2 2 2 2 2 2 2 2 2 2 2 2 2 2 2 2 2 2 2 2 2 2 2 2 2 2 2 2 2 2 2 2 2 2 2 2 2 2 2 2 2 2 2 2 2 2 2 2 2 2 2 2 2 2 2 2 2 2 2 2 2 2 2 2 2 2 2 2 2 2 2 2 2 2 2 2 2 2 2 2 2 2 2 2 
100
70	19	5	54	64	0
96	71	5	1
60	2
96	16	56	54	35	29	3
70	53	93	4
42	5
52	2	6
24	76	7
83	42	8
77	41	91	10	9
55	22	10
75	5	11
28	53	12
53	28	26	13
44	32	61	14
16	15
60	65	16
92	2	91	17
93	82	18
19
0	8	81	3	20
93	21
22
86	8	80	23
24
31	83	25
26
64	60	51	27
83	14	28
82	29
68	44	42	30
31
9	32
13	63	39	56	37	70	33
51	42	34
46	88	35
61	17	36
46	37
35	31	18	38
44	39
18	34	40
41
92	48	42
54	43
2	44
13	45
90	92	46
61	49	47
48
90	49
52	97	25	35	50
31	26	65	90	49	51
91	32	52
53
68	58	77	24	54
16	55
77	56
98	57
5	12	58
42	59
60
61
47	41	62
60	63
39	56	83	18	80	54	64
65
53	66
73	61	53	24	67
16	68
29	9	11	69
69	70
18	71
7	53	25	72
29	99	73
85	74
64	94	75
92	28	82	76
92	77
33	76	73	78
84	56	52	79
24	15	44	32	80
50	57	30	81
15	5	32	98	82
2	83
86	37	15	43	67	84
55	5	85
86
61	87
77	58	88
1	59	8	86	89
91	90
44	22	91
92
93
17	46	94
46	60	72	95
6	96
36	24	69	97
53	87	5	98
39	38	99

64
 0.5 0.5
 0.5 0.5
 0.5 0.5
 0.5 0.5
 0.5 0.5
 0.5 0.5
 0.5 0.5
 0.5 0.5
 0.5 0.5
 0.5 0.5
 0.0 1.0
 0.5 0.5
 0.5 0.5
 0.5 0.5
 0.5 0.5
 0.0 1.0
 0.5 0.5
 0.5 0.5
 0.5 0.5
 0.5 0.5
 0.5 0.5
 0.5 0.5
 0.5 0.5
 0.5 0.5
 0.0 1.0
 0.0 1.0
 0.5 0.5
 0.0 1.0
 0.0 1.0
 0.0 1.0
 0.5 0.5
 0.0 1.0

16
 0.0 1.0
 0.5 0.5
 0.0 1.0
 0.0 1.0
 0.5 0.5
 1.0 0.0
 1.0 0.0
 0.0 1.0

4
 1.0 0.0
 0.6666666666666666 0.33333333333333337

128
 0.0 1.0
 0.5 0.5
 0.5 0.5
 0.5 0.5
 0.5 0.5
 0.5 0.5
 0.5 0.5
 0.5 0.5
 1.0 0.0
 1.0 0.0
 0.5 0.5
 0.5 0.5
 0.5 0.5
 0.5 0.5
 0.0 1.0
 0.5 0.5
 0.5 0.5
 0.5 0.5
 0.5 0.5
 0.5 0.5
 0.5 0.5
 0.5 0.5
 0.5 0.5
 0.5 0.5
 0.5 0.5
 0.5 0.5
 0.0 1.0
 0.5 0.5
 0.5 0.5
 1.0 0.0
 0.5 0.5
 1.0 0.0
 0.5 0.5
 0.5 0.5
 0.5 0.5
 0.5 0.5
 0.5 0.5
 0.5 0.5
 0.5 0.5
 0.5 0.5
 0.5 0.5
 0.5 0.5
 1.0 0.0
 0.5 0.5
 0.5 0.5
 0.5 0.5
 0.5 0.5
 0.5 0.5
 0.0 1.0
 0.5 0.5
 0.5 0.5
 0.5 0.5
 0.5 0.5
 0.5 0.5
 0.5 0.5
 0.5 0.5
 0.5 0.5
 0.5 0.5
 0.5 0.5
 0.5 0.5
 0.5 0.5
 0.5 0.5
 0.0 1.0
 0.5 0.5

16
 0.5 0.5
 0.5 0.5
 0.5 0.5
 1.0 0.0
 0.5 0.5
 1.0 0.0
 0.5 0.5
 0.25 0.75

4
 1.0 0.0
 0.0 1.0

8
 1.0 0.0
 1.0 0.0
 1.0 0.0
 0.5 0.5

8
 0.0 1.0
 1.0 0.0
 1.0 0.0
 0.5 0.5

8
 0.3333333333333333 0.6666666666666667
 0.0 1.0
 0.0 1.0
 0.0 1.0

32
 0.5 0.5
 0.0 1.0
 0.5 0.5
 0.0 1.0
 1.0 0.0
 0.5 0.5
 0.5 0.5
 0.5 0.5
 0.5 0.5
 0.0 1.0
 0.5 0.5
 0.0 1.0
 0.5 0.5
 1.0 0.0
 0.5 0.5
 0.5 0.5

8
 0.0 1.0
 0.0 1.0
 0.125 0.875
 0.5 0.5

8
 1.0 0.0
 0.3333333333333333 0.6666666666666667
 0.0 1.0
 0.5 0.5

8
 0.0 1.0
 0.75 0.25
 1.0 0.0
 0.5 0.5

16
 1.0 0.0
 0.5 0.5
 0.5 0.5
 0.6666666666666666 0.33333333333333337
 0.3333333333333333 0.6666666666666667
 1.0 0.0
 0.0 1.0
 0.0 1.0

16
 1.0 0.0
 0.4 0.6
 0.5 0.5
 0.6666666666666666 0.33333333333333337
 0.5 0.5
 0.5 0.5
 0.5 0.5
 0.0 1.0

4
 1.0 0.0
 0.4 0.6

8
 0.0 1.0
 0.5 0.5
 0.8333333333333334 0.16666666666666663
 0.0 1.0

16
 0.5 0.5
 0.5 0.5
 1.0 0.0
 0.0 1.0
 1.0 0.0
 0.0 1.0
 0.0 1.0
 0.5 0.5

8
 0.5 0.5
 0.5 0.5
 0.0 1.0
 1.0 0.0

2
 0.0 1.0

32
 0.5 0.5
 0.5 0.5
 0.5 0.5
 0.5 0.5
 0.5 0.5
 0.5 0.5
 0.5 0.5
 0.5 0.5
 0.5 0.5
 1.0 0.0
 0.5 0.5
 0.5 0.5
 0.5 0.5
 0.0 1.0
 1.0 0.0
 0.5 0.5

4
 0.0 1.0
 0.875 0.125

2
 0.9 0.09999999999999998

16
 0.5 0.5
 0.0 1.0
 0.25 0.75
 0.3333333333333333 0.6666666666666667
 0.5 0.5
 0.5 0.5
 0.5 0.5
 0.5 0.5

2
 0.3 0.7

8
 1.0 0.0
 0.3333333333333333 0.6666666666666667
 0.75 0.25
 0.0 1.0

2
 0.5 0.5

16
 0.5 0.5
 0.5 0.5
 0.5 0.5
 0.0 1.0
 0.0 1.0
 0.5 0.5
 0.5 0.5
 0.5 0.5

8
 0.6 0.4
 1.0 0.0
 0.5 0.5
 0.25 0.75

4
 0.0 1.0
 1.0 0.0

16
 0.0 1.0
 0.3333333333333333 0.6666666666666667
 0.0 1.0
 0.5 0.5
 0.0 1.0
 0.5 0.5
 0.5 0.5
 0.5 0.5

2
 0.5 0.5

4
 1.0 0.0
 0.5 0.5

128
 0.5 0.5
 0.5 0.5
 0.5 0.5
 0.5 0.5
 0.5 0.5
 0.5 0.5
 0.5 0.5
 0.5 0.5
 0.5 0.5
 0.5 0.5
 0.5 0.5
 0.0 1.0
 0.5 0.5
 0.5 0.5
 0.5 0.5
 0.5 0.5
 0.5 0.5
 0.5 0.5
 0.5 0.5
 0.5 0.5
 0.5 0.5
 1.0 0.0
 0.5 0.5
 0.5 0.5
 0.5 0.5
 0.5 0.5
 0.5 0.5
 0.5 0.5
 0.5 0.5
 0.5 0.5
 0.5 0.5
 0.0 1.0
 0.5 0.5
 0.5 0.5
 0.5 0.5
 0.5 0.5
 0.5 0.5
 0.5 0.5
 0.0 1.0
 0.5 0.5
 0.5 0.5
 0.5 0.5
 0.5 0.5
 0.5 0.5
 1.0 0.0
 0.5 0.5
 0.5 0.5
 1.0 0.0
 0.5 0.5
 0.5 0.5
 0.5 0.5
 0.5 0.5
 0.5 0.5
 0.5 0.5
 0.5 0.5
 1.0 0.0
 0.5 0.5
 1.0 0.0
 0.5 0.5
 0.5 0.5
 0.5 0.5
 0.5 0.5
 0.5 0.5
 0.5 0.5

8
 0.5 0.5
 0.4 0.6
 0.0 1.0
 0.5 0.5

8
 0.25 0.75
 0.6666666666666666 0.33333333333333337
 1.0 0.0
 0.0 1.0

8
 1.0 0.0
 0.5 0.5
 0.25 0.75
 0.2 0.8

4
 0.42857142857142855 0.5714285714285714
 0.0 1.0

16
 0.5 0.5
 1.0 0.0
 0.0 1.0
 1.0 0.0
 0.5 0.5
 0.5 0.5
 0.0 1.0
 0.0 1.0

4
 0.3333333333333333 0.6666666666666667
 0.0 1.0

8
 0.0 1.0
 0.5 0.5
 0.5 0.5
 1.0 0.0

2
 0.8 0.19999999999999996

8
 0.0 1.0
 1.0 0.0
 0.25 0.75
 0.5 0.5

4
 1.0 0.0
 0.25 0.75

4
 0.8571428571428571 0.1428571428571429
 1.0 0.0

4
 0.6 0.4
 1.0 0.0

8
 0.5 0.5
 0.5 0.5
 1.0 0.0
 0.75 0.25

8
 1.0 0.0
 0.5 0.5
 0.25 0.75
 1.0 0.0

2
 0.5 0.5

4
 1.0 0.0
 0.8333333333333334 0.16666666666666663

32
 0.0 1.0
 0.0 1.0
 0.5 0.5
 0.0 1.0
 0.5 0.5
 0.5 0.5
 1.0 0.0
 0.5 0.5
 0.5 0.5
 0.0 1.0
 0.0 1.0
 0.5 0.5
 0.0 1.0
 0.0 1.0
 1.0 0.0
 0.5 0.5

64
 0.0 1.0
 0.5 0.5
 0.5 0.5
 0.5 0.5
 1.0 0.0
 0.5 0.5
 0.5 0.5
 0.5 0.5
 1.0 0.0
 0.5 0.5
 1.0 0.0
 0.5 0.5
 0.5 0.5
 0.5 0.5
 0.5 0.5
 0.5 0.5
 0.5 0.5
 0.5 0.5
 0.5 0.5
 1.0 0.0
 1.0 0.0
 0.5 0.5
 1.0 0.0
 0.5 0.5
 0.5 0.5
 0.5 0.5
 1.0 0.0
 0.5 0.5
 0.5 0.5
 0.5 0.5
 0.5 0.5
 0.5 0.5

8
 0.0 1.0
 0.6666666666666666 0.33333333333333337
 1.0 0.0
 0.0 1.0

2
 0.4 0.6

32
 0.5 0.5
 0.5 0.5
 1.0 0.0
 1.0 0.0
 1.0 0.0
 0.5 0.5
 1.0 0.0
 0.0 1.0
 0.5 0.5
 1.0 0.0
 0.5 0.5
 0.5 0.5
 0.5 0.5
 0.0 1.0
 0.5 0.5
 0.5 0.5

4
 0.4 0.6
 0.0 1.0

4
 0.3333333333333333 0.6666666666666667
 0.0 1.0

4
 0.75 0.25
 0.8333333333333334 0.16666666666666663

8
 0.0 1.0
 1.0 0.0
 0.25 0.75
 1.0 0.0

4
 0.8 0.19999999999999996
 0.2 0.8

2
 0.1 0.9

2
 0.1 0.9

8
 0.75 0.25
 0.5 0.5
 0.75 0.25
 1.0 0.0

4
 0.0 1.0
 0.6666666666666666 0.33333333333333337

128
 0.5 0.5
 0.5 0.5
 0.5 0.5
 0.5 0.5
 0.5 0.5
 0.5 0.5
 0.5 0.5
 0.5 0.5
 0.5 0.5
 0.5 0.5
 0.5 0.5
 0.5 0.5
 0.5 0.5
 0.5 0.5
 0.5 0.5
 0.5 0.5
 0.5 0.5
 0.5 0.5
 0.5 0.5
 0.5 0.5
 0.5 0.5
 1.0 0.0
 0.5 0.5
 0.5 0.5
 0.0 1.0
 0.5 0.5
 0.5 0.5
 0.5 0.5
 0.5 0.5
 0.0 1.0
 0.5 0.5
 0.5 0.5
 0.5 0.5
 0.5 0.5
 0.0 1.0
 0.5 0.5
 0.5 0.5
 0.5 0.5
 0.5 0.5
 0.5 0.5
 1.0 0.0
 0.5 0.5
 0.5 0.5
 0.5 0.5
 0.5 0.5
 0.5 0.5
 0.5 0.5
 0.5 0.5
 0.5 0.5
 0.0 1.0
 0.0 1.0
 0.5 0.5
 0.5 0.5
 0.5 0.5
 0.5 0.5
 0.5 0.5
 0.5 0.5
 0.0 1.0
 0.5 0.5
 0.5 0.5
 0.5 0.5
 0.5 0.5
 0.5 0.5
 0.5 0.5

2
 0.7 0.30000000000000004

4
 1.0 0.0
 0.6666666666666666 0.33333333333333337

32
 0.5 0.5
 0.5 0.5
 0.5 0.5
 0.5 0.5
 0.0 1.0
 0.5 0.5
 0.0 1.0
 0.5 0.5
 0.5 0.5
 0.5 0.5
 0.5 0.5
 0.0 1.0
 0.0 1.0
 0.5 0.5
 0.5 0.5
 0.5 0.5

4
 1.0 0.0
 0.0 1.0

16
 0.0 1.0
 1.0 0.0
 1.0 0.0
 0.6666666666666666 0.33333333333333337
 0.5 0.5
 0.5 0.5
 0.0 1.0
 0.5 0.5

4
 0.3333333333333333 0.6666666666666667
 0.0 1.0

4
 0.3333333333333333 0.6666666666666667
 0.75 0.25

16
 0.5 0.5
 1.0 0.0
 0.3333333333333333 0.6666666666666667
 1.0 0.0
 0.5 0.5
 0.0 1.0
 0.0 1.0
 1.0 0.0

8
 0.3333333333333333 0.6666666666666667
 0.0 1.0
 0.3333333333333333 0.6666666666666667
 0.5 0.5

4
 1.0 0.0
 1.0 0.0

8
 1.0 0.0
 0.0 1.0
 0.5 0.5
 0.0 1.0

16
 0.5 0.5
 0.5 0.5
 0.0 1.0
 0.0 1.0
 0.0 1.0
 1.0 0.0
 0.0 1.0
 0.5 0.5

4
 0.5 0.5
 0.6666666666666666 0.33333333333333337

16
 0.5 0.5
 0.5 0.5
 1.0 0.0
 0.3333333333333333 0.6666666666666667
 0.5 0.5
 0.0 1.0
 1.0 0.0
 0.0 1.0

16
 0.5 0.5
 0.5 0.5
 0.6666666666666666 0.33333333333333337
 0.0 1.0
 1.0 0.0
 1.0 0.0
 0.5 0.5
 0.0 1.0

32
 0.0 1.0
 0.5 0.5
 0.5 0.5
 1.0 0.0
 0.5 0.5
 0.5 0.5
 0.5 0.5
 0.5 0.5
 0.5 0.5
 1.0 0.0
 0.5 0.5
 0.5 0.5
 1.0 0.0
 0.0 1.0
 0.5 0.5
 0.5 0.5

16
 0.5 0.5
 0.0 1.0
 1.0 0.0
 0.5 0.5
 1.0 0.0
 0.8333333333333334 0.16666666666666663
 0.5 0.5
 0.0 1.0

32
 0.0 1.0
 0.5 0.5
 0.0 1.0
 0.0 1.0
 0.0 1.0
 1.0 0.0
 0.5 0.5
 0.0 1.0
 0.5 0.5
 1.0 0.0
 0.5 0.5
 0.0 1.0
 0.5 0.5
 1.0 0.0
 0.5 0.5
 0.5 0.5

4
 0.5714285714285714 0.4285714285714286
 0.6666666666666666 0.33333333333333337

64
 0.5 0.5
 0.5 0.5
 0.5 0.5
 1.0 0.0
 0.0 1.0
 0.5 0.5
 0.5 0.5
 1.0 0.0
 1.0 0.0
 1.0 0.0
 0.5 0.5
 1.0 0.0
 0.5 0.5
 0.0 1.0
 0.5 0.5
 0.5 0.5
 0.5 0.5
 0.5 0.5
 0.5 0.5
 0.5 0.5
 0.5 0.5
 0.5 0.5
 0.5 0.5
 0.5 0.5
 0.0 1.0
 0.0 1.0
 0.5 0.5
 0.5 0.5
 0.5 0.5
 0.5 0.5
 0.5 0.5
 0.5 0.5

8
 0.5 0.5
 1.0 0.0
 0.8 0.19999999999999996
 0.3333333333333333 0.6666666666666667

2
 0.8 0.19999999999999996

4
 1.0 0.0
 0.7777777777777778 0.2222222222222222

8
 0.0 1.0
 1.0 0.0
 0.5 0.5
 0.5 0.5

32
 0.5 0.5
 0.5 0.5
 0.5 0.5
 0.5 0.5
 0.5 0.5
 0.5 0.5
 1.0 0.0
 0.5 0.5
 1.0 0.0
 0.5 0.5
 0.0 1.0
 0.0 1.0
 0.5 0.5
 0.5 0.5
 0.6666666666666666 0.33333333333333337
 1.0 0.0

4
 0.5714285714285714 0.4285714285714286
 0.0 1.0

8
 0.625 0.375
 1.0 0.0
 1.0 0.0
 0.5 0.5

2
 0.4 0.6

2
 0.2 0.8

8
 1.0 0.0
 0.6666666666666666 0.33333333333333337
 0.8 0.19999999999999996
 0.5 0.5

16
 1.0 0.0
 0.5 0.5
 1.0 0.0
 0.3333333333333333 0.6666666666666667
 0.5 0.5
 0.5 0.5
 0.0 1.0
 0.0 1.0

4
 0.6666666666666666 0.33333333333333337
 1.0 0.0

16
 0.5 0.5
 1.0 0.0
 0.0 1.0
 0.5 0.5
 0.0 1.0
 1.0 0.0
 0.6666666666666666 0.33333333333333337
 1.0 0.0

16
 0.0 1.0
 0.5 0.5
 1.0 0.0
 0.5 0.5
 0.0 1.0
 0.3333333333333333 0.6666666666666667
 1.0 0.0
 0.5 0.5

8
 1.0 0.0
 1.0 0.0
 1.0 0.0
 0.2 0.8
